c Random 5-CNF over 30 variables and 150 clauses
c Generated with `cnfgen`
c (C) 2012-2016 Massimo Lauria <lauria.massimo@gmail.com>
c https://massimolauria.github.io/cnfgen
c
c COMMAND LINE: cnfgen --output tmp-5-30-150.dimacs --output-format dimacs randkcnf 5 30 150
c
c sdimacs generated by gen-sdimacs
c
p cnf 30 150
r 0.5 1 2 3 4 5 6 7 8 9 10 11 12 13 14 15 0
e  16 17 18 19 20 21 22 23 24 25 26 27 28 29 30 0
3 13 -15 16 24 0
1 -10 -15 -18 -24 0
13 -16 -18 22 30 0
-4 13 21 -22 25 0
2 4 -6 -14 -18 0
1 8 -9 -16 30 0
18 -21 23 -26 29 0
-3 -7 -21 28 30 0
-4 -6 -7 11 -21 0
-8 -18 20 -28 30 0
1 3 10 -20 -21 0
3 17 23 26 29 0
8 -11 16 -22 28 0
10 -12 -24 -25 30 0
-5 -12 -15 -16 22 0
5 8 -9 12 -19 0
7 -11 -16 22 -30 0
2 10 -11 14 -27 0
6 7 -9 -19 -21 0
-6 -10 14 -15 -29 0
-7 14 27 28 29 0
14 -17 24 -25 -26 0
-3 -4 16 24 25 0
-21 -23 -25 -28 -30 0
-3 -7 -22 -26 29 0
-3 8 -24 26 -29 0
-3 -7 18 -24 -30 0
-1 -2 -16 26 -27 0
4 -11 -17 -20 -29 0
-4 12 -20 -21 22 0
-4 -5 6 -10 15 0
2 3 8 -9 24 0
2 -9 -11 -22 -24 0
5 17 -22 -24 30 0
3 8 -10 -14 -20 0
-2 -5 -11 -17 27 0
-2 -4 6 13 17 0
-8 10 -12 23 25 0
-4 -6 -8 -10 -23 0
4 6 -8 -9 21 0
3 -11 23 -25 -29 0
2 -5 -6 8 14 0
-7 -15 16 -19 -28 0
-5 -10 20 -23 27 0
1 -8 -10 27 29 0
-7 10 20 -23 -30 0
-1 -14 15 16 -19 0
2 -5 9 26 -30 0
3 -7 -9 -28 -29 0
8 -14 18 -19 21 0
1 -6 -13 15 -24 0
-3 -8 -10 20 -30 0
-4 -11 -15 17 -23 0
9 14 -15 18 28 0
-6 -20 23 -24 28 0
3 13 -14 -26 -28 0
4 11 13 -14 -24 0
-7 11 -17 23 -29 0
-2 -10 12 -27 30 0
-4 -16 21 24 27 0
-2 -3 4 8 27 0
-3 -15 16 -19 29 0
-10 12 -21 -26 29 0
3 5 -11 13 21 0
-8 12 14 -15 25 0
10 -17 22 28 -29 0
-7 8 14 22 23 0
-3 14 25 -29 30 0
-3 12 -14 -22 26 0
-4 20 21 -23 29 0
3 13 14 -15 26 0
1 -13 18 23 -27 0
4 5 11 -12 16 0
9 12 22 -27 -29 0
-2 -9 -14 -19 20 0
-4 -8 -16 -17 -23 0
3 -11 -15 -21 29 0
-1 -5 -11 -23 24 0
-1 5 19 23 -29 0
-2 -4 14 15 26 0
-11 12 13 22 -29 0
-17 -18 22 23 28 0
5 -14 -20 21 28 0
2 16 -17 19 -30 0
2 15 -19 20 22 0
-7 14 -15 -19 22 0
-1 -2 13 22 28 0
-11 -12 -14 -16 -17 0
-6 18 -20 -24 -29 0
9 -14 -21 25 -30 0
-1 12 24 27 -29 0
-5 -8 14 -19 20 0
3 5 6 12 -24 0
-3 4 -5 -22 -26 0
-9 -15 -17 -25 29 0
-6 9 -11 22 -26 0
-12 -15 20 23 26 0
-2 -10 12 -18 -21 0
-8 15 22 28 29 0
-5 -12 -16 27 30 0
2 11 13 -24 30 0
7 12 -16 -17 -20 0
-3 -24 25 -27 30 0
7 -14 -17 -18 27 0
2 -8 -23 -26 29 0
21 25 27 -28 30 0
7 -14 -17 23 -25 0
-5 -6 8 -9 -24 0
1 -14 18 21 27 0
4 13 18 19 -25 0
-4 6 9 16 25 0
-2 6 16 21 26 0
3 15 17 -25 -27 0
1 4 13 -20 23 0
12 13 -22 -27 -28 0
-8 -9 -10 14 16 0
4 -6 -15 -18 19 0
-13 -16 -17 19 24 0
-2 3 9 -18 20 0
-4 7 -15 23 24 0
-1 4 -15 23 -27 0
6 -8 -9 28 -29 0
5 11 -19 22 26 0
-4 -25 -28 -29 30 0
-12 -16 -17 -19 25 0
1 6 12 13 25 0
8 9 -15 -21 22 0
-2 9 17 -18 -30 0
-8 -10 -16 -22 26 0
3 15 -26 28 30 0
8 12 -18 -23 -26 0
-3 -4 10 -18 28 0
3 -10 -14 21 -23 0
-17 20 -22 25 29 0
-13 -15 16 17 30 0
-11 -12 13 -23 24 0
1 -3 -17 22 -30 0
-4 9 -14 21 -26 0
-1 -5 20 21 25 0
8 -9 14 -25 -26 0
-6 10 -12 -16 22 0
-1 2 -14 -17 -20 0
-9 -10 13 -29 30 0
8 -10 -14 -22 28 0
-10 -14 -16 -20 23 0
5 7 -10 27 -29 0
-2 6 -18 23 26 0
1 -7 15 23 -27 0
-8 10 -14 -18 -22 0
1 7 12 -15 -28 0
